GLPSOL--GLPK LP/MIP Solver 5.0
Parameter(s) specified in the command line:
 --lp ../modeles/5_204.lp --log 5_204.log
Reading problem data from '../modeles/5_204.lp'...
1041 rows, 2050 columns, 7155 non-zeros
1020 integer variables, all of which are binary
3102 lines were read
GLPK Integer Optimizer 5.0
1041 rows, 2050 columns, 7155 non-zeros
1020 integer variables, all of which are binary
Preprocessing...
1010 constraint coefficient(s) were reduced
1041 rows, 2045 columns, 7150 non-zeros
1020 integer variables, all of which are binary
Scaling...
 A: min|aij| =  3.845e-04  max|aij| =  4.000e+00  ratio =  1.040e+04
GM: min|aij| =  9.901e-02  max|aij| =  1.010e+01  ratio =  1.020e+02
EQ: min|aij| =  9.804e-03  max|aij| =  1.000e+00  ratio =  1.020e+02
2N: min|aij| =  7.812e-03  max|aij| =  1.755e+00  ratio =  2.246e+02
Constructing initial basis...
Size of triangular part is 1041
Solving LP relaxation...
GLPK Simplex Optimizer 5.0
1041 rows, 2045 columns, 7150 non-zeros
      0: obj =   1.000000000e+01 inf =   2.450e+01 (11)
     74: obj =   3.579772148e-01 inf =   0.000e+00 (0)
*   293: obj =  -2.235729847e+00 inf =   2.862e-16 (0)
OPTIMAL LP SOLUTION FOUND
Integer optimization begins...
Long-step dual simplex will be used
+   293: mip =     not found yet >=              -inf        (1; 0)
+   408: >>>>>  -2.235729847e+00 >=  -2.235729847e+00 < 0.1% (115; 0)
+   408: mip =  -2.235729847e+00 >=     tree is empty   0.0% (0; 229)
INTEGER OPTIMAL SOLUTION FOUND
Time used:   0.2 secs
Memory used: 3.0 Mb (3166287 bytes)
